************************************************************************
file with basedata            : mf7_.bas
initial value random generator: 1362581367
************************************************************************
projects                      :  1
jobs (incl. supersource/sink ):  32
horizon                       :  238
RESOURCES
  - renewable                 :  2   R
  - nonrenewable              :  2   N
  - doubly constrained        :  0   D
************************************************************************
PROJECT INFORMATION:
pronr.  #jobs rel.date duedate tardcost  MPM-Time
    1     30      0       35       24       35
************************************************************************
PRECEDENCE RELATIONS:
jobnr.    #modes  #successors   successors
   1        1          3           2   3   4
   2        3          3          23  24  26
   3        3          3          20  27  31
   4        3          3           5  10  13
   5        3          2           6  11
   6        3          3           7   8  14
   7        3          2          22  31
   8        3          3           9  19  27
   9        3          2          21  22
  10        3          2          12  17
  11        3          2          15  24
  12        3          1          26
  13        3          2          17  20
  14        3          1          24
  15        3          3          16  18  19
  16        3          3          20  21  27
  17        3          2          22  23
  18        3          1          25
  19        3          1          29
  20        3          2          23  25
  21        3          2          26  28
  22        3          1          30
  23        3          1          30
  24        3          2          25  28
  25        3          1          29
  26        3          2          30  31
  27        3          1          28
  28        3          1          29
  29        3          1          32
  30        3          1          32
  31        3          1          32
  32        1          0        
************************************************************************
REQUESTS/DURATIONS:
jobnr. mode duration  R 1  R 2  N 1  N 2
------------------------------------------------------------------------
  1      1     0       0    0    0    0
  2      1     3       9   10    6    0
         2     9       6    8    1    0
         3    10       4    8    0    2
  3      1     3      10    4    0    6
         2     3       8    6    0    7
         3     7       6    1    0    5
  4      1     1       8    8    0    4
         2     3       3    4    0    2
         3     6       3    1    0    1
  5      1     3       8    9    0    5
         2     4       6    7    0    5
         3     8       3    6    0    4
  6      1     1       8    6    0    5
         2     4       5    6    2    0
         3     9       5    5    2    0
  7      1     4      10    2    0    6
         2     6      10    2    0    5
         3     8       9    1    0    4
  8      1     9       4    8    0    3
         2     9       3    9    0    3
         3    10       3    6    0    3
  9      1     6       1   10    0    6
         2     7       1    8    0    6
         3    10       1    6    0    4
 10      1     2       7    7    8    0
         2     4       6    7    0    5
         3     5       6    6    8    0
 11      1     3       8   10    0    4
         2     5       7    9    0    3
         3     8       6    9    3    0
 12      1     4       6    7    0    5
         2     7       4    5    0    4
         3     7       5    6    4    0
 13      1     3      10    5    4    0
         2     5       8    5    0    9
         3     9       3    3    0    8
 14      1     1       8    7    8    0
         2     8       7    6    7    0
         3     9       5    5    7    0
 15      1     3       6    4    9    0
         2     3       9    4    0    6
         3     7       3    3    7    0
 16      1     1       3    6    0    9
         2     7       2    5    0    6
         3     8       2    5    0    4
 17      1     4       5    8    0    7
         2     8       5    7    2    0
         3    10       4    7    0    7
 18      1     2       3    4    4    0
         2     3       2    3    4    0
         3     3       3    2    4    0
 19      1     1       7    8    0    9
         2     9       7    8    0    8
         3    10       6    6    0    6
 20      1     2       5    1    0    4
         2     7       3    1    5    0
         3     9       1    1    0    1
 21      1     5       7    8    6    0
         2     7       7    8    0    7
         3    10       6    7    0    5
 22      1     1       5   10    7    0
         2     5       4   10    5    0
         3     6       4   10    0    5
 23      1     4      10    2    9    0
         2     6       9    1    0    7
         3     9       8    1    9    0
 24      1     5       7    5    0    6
         2     7       6    4    9    0
         3     7       4    5    7    0
 25      1     2       7    2    0    9
         2     6       7    2    8    0
         3     7       6    1    0    3
 26      1     6       4    9    6    0
         2     6       3    7    0    5
         3     7       3    4    0    4
 27      1     1      10    4    0    5
         2     2       9    3    0    2
         3     9       7    2    0    1
 28      1     1       7    6    7    0
         2     2       7    6    4    0
         3    10       2    6    2    0
 29      1     3       7    8    3    0
         2     3       9    7    3    0
         3    10       5    2    0    4
 30      1     4       9    9    6    0
         2     8       9    7    0    4
         3     8       9    6    4    0
 31      1     1       4    9    9    0
         2     1       5    8    7    0
         3     2       3    7    4    0
 32      1     0       0    0    0    0
************************************************************************
RESOURCEAVAILABILITIES:
  R 1  R 2  N 1  N 2
   35   35   44   61
************************************************************************
